c 138_3_checker_5cl.cnf
c
c field = 138
c formula set type = 3_checker_5cl
c
p cnf 5 12
270 
272 
276 
-279 
-280 
271 
273 
277 
-278 
-281 
272 
276 
278 
-271 
-280 
273 
277 
279 
-270 
-281 
210 
242 
306 
-339 
-370 
211 
243 
307 
-338 
-371 
242 
306 
338 
-211 
-370 
243 
307 
339 
-210 
-371 
218 
246 
302 
-331 
-190 
219 
247 
303 
-330 
-191 
246 
302 
330 
-219 
-190 
247 
303 
331 
-218 
-191 
